slp/bench/ls/entl/spaguetti-20-e05.tptp
%------------------------------------------------------------------------------
% File     : 
% Domain   : Separation Logic
% Problem  : Randomly generated entailment of the form F -> \bot (n = 20)
% Version  : 
% English  : A randomly generated entailment with n program variables.
%            Negated equalities and list segments are added at random, with
%            specific paramenters so that about half of the generated
%            entailments are valid (or, equivalently, F is unsatisfiable).
%            Normalization and well-formedness axioms should be enough to
%            decide these entailments.

% Refs     : [NV11] Navarro (2011), Separation Logic + Superposition Calculus
% Source   : [NV11]
% Names    :

% Status   : 
% Syntax   : 
% SPC      : 

% Comments :
%------------------------------------------------------------------------------
%====Include axioms for Lists in Separation Logic
include('Axioms/SepLogicLists.ax').

cnf(premise_1,hypothesis,
    ( ~ x6 = x16 )).

cnf(premise_2,hypothesis,
    ( ~ x3 = x7 )).

cnf(premise_3,hypothesis,
    ( ~ x3 = x19 )).

cnf(premise_4,hypothesis,
    ( ~ x3 = x14 )).

cnf(premise_5,hypothesis,
    ( ~ x7 = x11 )).

cnf(premise_6,hypothesis,
    ( ~ x7 = x18 )).

cnf(premise_7,hypothesis,
    ( ~ x7 = x9 )).

cnf(premise_8,hypothesis,
    ( ~ x7 = x16 )).

cnf(premise_9,hypothesis,
    ( ~ x7 = x12 )).

cnf(premise_10,hypothesis,
    ( ~ x7 = x14 )).

cnf(premise_11,hypothesis,
    ( ~ x2 = x6 )).

cnf(premise_12,hypothesis,
    ( ~ x8 = x10 )).

cnf(premise_13,hypothesis,
    ( ~ x8 = x15 )).

cnf(premise_14,hypothesis,
    ( ~ x1 = x10 )).

cnf(premise_15,hypothesis,
    ( ~ x1 = x19 )).

cnf(premise_16,hypothesis,
    ( ~ x4 = x18 )).

cnf(premise_17,hypothesis,
    ( ~ x4 = x9 )).

cnf(premise_18,hypothesis,
    ( ~ x4 = x17 )).

cnf(premise_19,hypothesis,
    ( ~ x4 = x15 )).

cnf(premise_20,hypothesis,
    ( ~ x16 = x18 )).

cnf(premise_21,hypothesis,
    ( ~ x10 = x20 )).

cnf(premise_22,hypothesis,
    ( ~ x13 = x17 )).

cnf(premise_23,hypothesis,
    ( ~ x5 = x10 )).

cnf(premise_24,hypothesis,
    ( ~ x5 = x20 )).

cnf(premise_25,hypothesis,
    ( ~ x5 = x14 )).

cnf(premise_26,hypothesis,
    ( heap(sep(ls(x5, x16), sep(ls(x13, x3), sep(ls(x19, x14), sep(ls(x19, x1), sep(ls(x16, x17), sep(ls(x18, x15), sep(ls(x1, x9), sep(ls(x8, x9), sep(ls(x20, x5), sep(ls(x17, x20), sep(ls(x12, x13), sep(ls(x2, x11), sep(ls(x9, x2), sep(ls(x11, x5), sep(ls(x11, x7), sep(ls(x11, x4), emp))))))))))))))))) )).

cnf(conclusion_1,negated_conjecture,
    ( x1 = x1
    | ~ heap(emp) )).

